0 0 0 0
0 1 0 0
0 2 0 0
0 3 0 0
0 4 0 3
0 5 0 3
0 6 0 2
0 7 0 14
0 8 0 4
0 9 1 16
0 10 0 3
0 11 0 7
0 12 0 11
0 13 0 5
0 14 0 3
0 15 0 10
0 16 0 6
0 17 0 11
0 18 0 6
0 19 0 13
0 20 2 13
0 21 0 11
0 22 0 14
0 23 0 15
0 24 0 11
0 25 0 12
0 26 2 13
0 27 0 19
0 28 0 20
0 29 0 19
0 30 1 20
0 31 0 22
